(set-logic ALL)
(declare-fun ARG2_LSBRCK_0_RSBRCK_ () Bool)
(declare-fun ARG2_LSBRCK_10_RSBRCK_ () Bool)
(declare-fun ARG2_LSBRCK_11_RSBRCK_ () Bool)
(declare-fun ARG2_LSBRCK_12_RSBRCK_ () Bool)
(declare-fun ARG2_LSBRCK_13_RSBRCK_ () Bool)
(declare-fun ARG2_LSBRCK_14_RSBRCK_ () Bool)
(declare-fun ARG2_LSBRCK_15_RSBRCK_ () Bool)
(declare-fun ARG2_LSBRCK_16_RSBRCK_ () Bool)
(declare-fun ARG2_LSBRCK_17_RSBRCK_ () Bool)
(declare-fun ARG2_LSBRCK_18_RSBRCK_ () Bool)
(declare-fun ARG2_LSBRCK_19_RSBRCK_ () Bool)
(declare-fun ARG2_LSBRCK_1_RSBRCK_ () Bool)
(declare-fun ARG2_LSBRCK_20_RSBRCK_ () Bool)
(declare-fun ARG2_LSBRCK_21_RSBRCK_ () Bool)
(declare-fun ARG2_LSBRCK_22_RSBRCK_ () Bool)
(declare-fun ARG2_LSBRCK_23_RSBRCK_ () Bool)
(declare-fun ARG2_LSBRCK_24_RSBRCK_ () Bool)
(declare-fun ARG2_LSBRCK_25_RSBRCK_ () Bool)
(declare-fun ARG2_LSBRCK_26_RSBRCK_ () Bool)
(declare-fun ARG2_LSBRCK_27_RSBRCK_ () Bool)
(declare-fun ARG2_LSBRCK_28_RSBRCK_ () Bool)
(declare-fun ARG2_LSBRCK_29_RSBRCK_ () Bool)
(declare-fun ARG2_LSBRCK_2_RSBRCK_ () Bool)
(declare-fun ARG2_LSBRCK_30_RSBRCK_ () Bool)
(declare-fun ARG2_LSBRCK_31_RSBRCK_ () Bool)
(declare-fun ARG2_LSBRCK_3_RSBRCK_ () Bool)
(declare-fun ARG2_LSBRCK_4_RSBRCK_ () Bool)
(declare-fun ARG2_LSBRCK_5_RSBRCK_ () Bool)
(declare-fun ARG2_LSBRCK_6_RSBRCK_ () Bool)
(declare-fun ARG2_LSBRCK_7_RSBRCK_ () Bool)
(declare-fun ARG2_LSBRCK_8_RSBRCK_ () Bool)
(declare-fun ARG2_LSBRCK_9_RSBRCK_ () Bool)
(declare-fun lift_mul () Int)
(declare-fun lift_mul_sum_LSBRCK_31_RSBRCK_ () Int)
(declare-fun lift_mul_sum_LSBRCK_30_RSBRCK_ () Int)
(declare-fun lift_mul_sum_LSBRCK_29_RSBRCK_ () Int)
(declare-fun lift_mul_sum_LSBRCK_28_RSBRCK_ () Int)
(declare-fun lift_mul_sum_LSBRCK_27_RSBRCK_ () Int)
(declare-fun lift_mul_sum_LSBRCK_26_RSBRCK_ () Int)
(declare-fun lift_mul_sum_LSBRCK_25_RSBRCK_ () Int)
(declare-fun lift_mul_sum_LSBRCK_24_RSBRCK_ () Int)
(declare-fun lift_mul_sum_LSBRCK_23_RSBRCK_ () Int)
(declare-fun lift_mul_sum_LSBRCK_22_RSBRCK_ () Int)
(declare-fun lift_mul_sum_LSBRCK_21_RSBRCK_ () Int)
(declare-fun lift_mul_sum_LSBRCK_20_RSBRCK_ () Int)
(declare-fun lift_mul_sum_LSBRCK_19_RSBRCK_ () Int)
(declare-fun lift_mul_sum_LSBRCK_18_RSBRCK_ () Int)
(declare-fun lift_mul_sum_LSBRCK_17_RSBRCK_ () Int)
(declare-fun lift_mul_sum_LSBRCK_16_RSBRCK_ () Int)
(declare-fun lift_mul_sum_LSBRCK_15_RSBRCK_ () Int)
(declare-fun lift_mul_sum_LSBRCK_14_RSBRCK_ () Int)
(declare-fun lift_mul_sum_LSBRCK_13_RSBRCK_ () Int)
(declare-fun lift_mul_sum_LSBRCK_12_RSBRCK_ () Int)
(declare-fun lift_mul_sum_LSBRCK_10_RSBRCK_ () Int)
(declare-fun lift_mul_sum_LSBRCK_3_RSBRCK_ () Int)
(declare-fun lift_mul_sum_LSBRCK_1_RSBRCK_ () Int)
(declare-fun lift_mul_sum_LSBRCK_5_RSBRCK_ () Int)
(declare-fun lift_mul_sum_LSBRCK_8_RSBRCK_ () Int)
(declare-fun lift_arg1 () Int)
(declare-fun lift_mul_sum_LSBRCK_7_RSBRCK_ () Int)
(declare-fun lift_mul_sum () Int)
(declare-fun lift_arg2_LSBRCK_0_RSBRCK_ () Int)
(declare-fun lift_arg2_LSBRCK_1_RSBRCK_ () Int)
(declare-fun lift_mul_sum_LSBRCK_4_RSBRCK_ () Int)
(declare-fun lift_arg2_LSBRCK_2_RSBRCK_ () Int)
(declare-fun lift_arg2_LSBRCK_3_RSBRCK_ () Int)
(declare-fun lift_arg2_LSBRCK_4_RSBRCK_ () Int)
(declare-fun lift_arg2_LSBRCK_5_RSBRCK_ () Int)
(declare-fun lift_arg2_LSBRCK_6_RSBRCK_ () Int)
(declare-fun lift_arg2_LSBRCK_7_RSBRCK_ () Int)
(declare-fun lift_arg2_LSBRCK_8_RSBRCK_ () Int)
(declare-fun lift_arg2_LSBRCK_9_RSBRCK_ () Int)
(declare-fun lift_arg2_LSBRCK_11_RSBRCK_ () Int)
(declare-fun lift_arg2_LSBRCK_12_RSBRCK_ () Int)
(declare-fun lift_arg2_LSBRCK_13_RSBRCK_ () Int)
(declare-fun lift_arg2_LSBRCK_14_RSBRCK_ () Int)
(declare-fun lift_arg2_LSBRCK_15_RSBRCK_ () Int)
(declare-fun lift_arg2_LSBRCK_16_RSBRCK_ () Int)
(declare-fun lift_arg2 () Int)
(declare-fun lift_arg2_LSBRCK_17_RSBRCK_ () Int)
(declare-fun lift_mul_sum_LSBRCK_0_RSBRCK_ () Int)
(declare-fun lift_arg2_LSBRCK_18_RSBRCK_ () Int)
(declare-fun lift_mul_sum_LSBRCK_11_RSBRCK_ () Int)
(declare-fun lift_arg2_LSBRCK_19_RSBRCK_ () Int)
(declare-fun lift_arg2_LSBRCK_20_RSBRCK_ () Int)
(declare-fun lift_arg2_LSBRCK_21_RSBRCK_ () Int)
(declare-fun lift_arg2_LSBRCK_22_RSBRCK_ () Int)
(declare-fun lift_arg2_LSBRCK_24_RSBRCK_ () Int)
(declare-fun lift_arg2_LSBRCK_25_RSBRCK_ () Int)
(declare-fun lift_arg2_LSBRCK_26_RSBRCK_ () Int)
(declare-fun lift_arg2_LSBRCK_27_RSBRCK_ () Int)
(declare-fun lift_mul_sum_LSBRCK_2_RSBRCK_ () Int)
(declare-fun lift_arg2_LSBRCK_28_RSBRCK_ () Int)
(declare-fun lift_arg2_LSBRCK_29_RSBRCK_ () Int)
(declare-fun lift_mul_sum_LSBRCK_6_RSBRCK_ () Int)
(declare-fun lift_arg2_LSBRCK_30_RSBRCK_ () Int)
(declare-fun lift_mul_sum_LSBRCK_9_RSBRCK_ () Int)
(declare-fun lift_arg2_LSBRCK_10_RSBRCK_ () Int)
(declare-fun lift_arg2_LSBRCK_31_RSBRCK_ () Int)
(declare-fun lift_arg2_LSBRCK_23_RSBRCK_ () Int)
(declare-fun lift_nat_step$ (Int) Int)
(declare-fun lift_to_int$ (Int) Int)
(assert (>= (lift_to_int$ lift_arg2) 0))
(assert (<= (lift_to_int$ lift_arg2) 4294967295))
(assert (= (- (- (- (- (- (- (- (- (- (- (- (- (- (- (- (- (- (- (- (- (- (- (- (- (- (- (- (- (- (- (- (- (lift_to_int$ lift_arg2) (lift_to_int$ lift_arg2_LSBRCK_0_RSBRCK_)) (* 2 (lift_to_int$ lift_arg2_LSBRCK_1_RSBRCK_))) (* 4 (lift_to_int$ lift_arg2_LSBRCK_2_RSBRCK_))) (* 8 (lift_to_int$ lift_arg2_LSBRCK_3_RSBRCK_))) (* 16 (lift_to_int$ lift_arg2_LSBRCK_4_RSBRCK_))) (* 32 (lift_to_int$ lift_arg2_LSBRCK_5_RSBRCK_))) (* 64 (lift_to_int$ lift_arg2_LSBRCK_6_RSBRCK_))) (* 128 (lift_to_int$ lift_arg2_LSBRCK_7_RSBRCK_))) (* 256 (lift_to_int$ lift_arg2_LSBRCK_8_RSBRCK_))) (* 512 (lift_to_int$ lift_arg2_LSBRCK_9_RSBRCK_))) (* 1024 (lift_to_int$ lift_arg2_LSBRCK_10_RSBRCK_))) (* 2048 (lift_to_int$ lift_arg2_LSBRCK_11_RSBRCK_))) (* 4096 (lift_to_int$ lift_arg2_LSBRCK_12_RSBRCK_))) (* 8192 (lift_to_int$ lift_arg2_LSBRCK_13_RSBRCK_))) (* 16384 (lift_to_int$ lift_arg2_LSBRCK_14_RSBRCK_))) (* 32768 (lift_to_int$ lift_arg2_LSBRCK_15_RSBRCK_))) (* 65536 (lift_to_int$ lift_arg2_LSBRCK_16_RSBRCK_))) (* 131072 (lift_to_int$ lift_arg2_LSBRCK_17_RSBRCK_))) (* 262144 (lift_to_int$ lift_arg2_LSBRCK_18_RSBRCK_))) (* 524288 (lift_to_int$ lift_arg2_LSBRCK_19_RSBRCK_))) (* 1048576 (lift_to_int$ lift_arg2_LSBRCK_20_RSBRCK_))) (* 2097152 (lift_to_int$ lift_arg2_LSBRCK_21_RSBRCK_))) (* 4194304 (lift_to_int$ lift_arg2_LSBRCK_22_RSBRCK_))) (* 8388608 (lift_to_int$ lift_arg2_LSBRCK_23_RSBRCK_))) (* 16777216 (lift_to_int$ lift_arg2_LSBRCK_24_RSBRCK_))) (* 33554432 (lift_to_int$ lift_arg2_LSBRCK_25_RSBRCK_))) (* 67108864 (lift_to_int$ lift_arg2_LSBRCK_26_RSBRCK_))) (* 134217728 (lift_to_int$ lift_arg2_LSBRCK_27_RSBRCK_))) (* 268435456 (lift_to_int$ lift_arg2_LSBRCK_28_RSBRCK_))) (* 536870912 (lift_to_int$ lift_arg2_LSBRCK_29_RSBRCK_))) (* 1073741824 (lift_to_int$ lift_arg2_LSBRCK_30_RSBRCK_))) (* 2147483648 (lift_to_int$ lift_arg2_LSBRCK_31_RSBRCK_))) 0))
(assert (>= (lift_to_int$ lift_arg2_LSBRCK_0_RSBRCK_) 0))
(assert (<= (lift_to_int$ lift_arg2_LSBRCK_0_RSBRCK_) 1))
(assert (or (not ARG2_LSBRCK_0_RSBRCK_) (= (lift_to_int$ lift_arg2_LSBRCK_0_RSBRCK_) 1)))
(assert (or ARG2_LSBRCK_0_RSBRCK_ (= (lift_to_int$ lift_arg2_LSBRCK_0_RSBRCK_) 0)))
(assert (>= (lift_to_int$ lift_arg2_LSBRCK_1_RSBRCK_) 0))
(assert (<= (lift_to_int$ lift_arg2_LSBRCK_1_RSBRCK_) 1))
(assert (or (not ARG2_LSBRCK_1_RSBRCK_) (= (lift_to_int$ lift_arg2_LSBRCK_1_RSBRCK_) 1)))
(assert (or ARG2_LSBRCK_1_RSBRCK_ (= (lift_to_int$ lift_arg2_LSBRCK_1_RSBRCK_) 0)))
(assert (>= (lift_to_int$ lift_arg2_LSBRCK_2_RSBRCK_) 0))
(assert (<= (lift_to_int$ lift_arg2_LSBRCK_2_RSBRCK_) 1))
(assert (or (not ARG2_LSBRCK_2_RSBRCK_) (= (lift_to_int$ lift_arg2_LSBRCK_2_RSBRCK_) 1)))
(assert (or ARG2_LSBRCK_2_RSBRCK_ (= (lift_to_int$ lift_arg2_LSBRCK_2_RSBRCK_) 0)))
(assert (>= (lift_to_int$ lift_arg2_LSBRCK_3_RSBRCK_) 0))
(assert (<= (lift_to_int$ lift_arg2_LSBRCK_3_RSBRCK_) 1))
(assert (or (not ARG2_LSBRCK_3_RSBRCK_) (= (lift_to_int$ lift_arg2_LSBRCK_3_RSBRCK_) 1)))
(assert (or ARG2_LSBRCK_3_RSBRCK_ (= (lift_to_int$ lift_arg2_LSBRCK_3_RSBRCK_) 0)))
(assert (>= (lift_to_int$ lift_arg2_LSBRCK_4_RSBRCK_) 0))
(assert (<= (lift_to_int$ lift_arg2_LSBRCK_4_RSBRCK_) 1))
(assert (or (not ARG2_LSBRCK_4_RSBRCK_) (= (lift_to_int$ lift_arg2_LSBRCK_4_RSBRCK_) 1)))
(assert (or ARG2_LSBRCK_4_RSBRCK_ (= (lift_to_int$ lift_arg2_LSBRCK_4_RSBRCK_) 0)))
(assert (>= (lift_to_int$ lift_arg2_LSBRCK_5_RSBRCK_) 0))
(assert (<= (lift_to_int$ lift_arg2_LSBRCK_5_RSBRCK_) 1))
(assert (or (not ARG2_LSBRCK_5_RSBRCK_) (= (lift_to_int$ lift_arg2_LSBRCK_5_RSBRCK_) 1)))
(assert (or ARG2_LSBRCK_5_RSBRCK_ (= (lift_to_int$ lift_arg2_LSBRCK_5_RSBRCK_) 0)))
(assert (>= (lift_to_int$ lift_arg2_LSBRCK_6_RSBRCK_) 0))
(assert (<= (lift_to_int$ lift_arg2_LSBRCK_6_RSBRCK_) 1))
(assert (or (not ARG2_LSBRCK_6_RSBRCK_) (= (lift_to_int$ lift_arg2_LSBRCK_6_RSBRCK_) 1)))
(assert (or ARG2_LSBRCK_6_RSBRCK_ (= (lift_to_int$ lift_arg2_LSBRCK_6_RSBRCK_) 0)))
(assert (>= (lift_to_int$ lift_arg2_LSBRCK_7_RSBRCK_) 0))
(assert (<= (lift_to_int$ lift_arg2_LSBRCK_7_RSBRCK_) 1))
(assert (or (not ARG2_LSBRCK_7_RSBRCK_) (= (lift_to_int$ lift_arg2_LSBRCK_7_RSBRCK_) 1)))
(assert (or ARG2_LSBRCK_7_RSBRCK_ (= (lift_to_int$ lift_arg2_LSBRCK_7_RSBRCK_) 0)))
(assert (>= (lift_to_int$ lift_arg2_LSBRCK_8_RSBRCK_) 0))
(assert (<= (lift_to_int$ lift_arg2_LSBRCK_8_RSBRCK_) 1))
(assert (or (not ARG2_LSBRCK_8_RSBRCK_) (= (lift_to_int$ lift_arg2_LSBRCK_8_RSBRCK_) 1)))
(assert (or ARG2_LSBRCK_8_RSBRCK_ (= (lift_to_int$ lift_arg2_LSBRCK_8_RSBRCK_) 0)))
(assert (>= (lift_to_int$ lift_arg2_LSBRCK_9_RSBRCK_) 0))
(assert (<= (lift_to_int$ lift_arg2_LSBRCK_9_RSBRCK_) 1))
(assert (or (not ARG2_LSBRCK_9_RSBRCK_) (= (lift_to_int$ lift_arg2_LSBRCK_9_RSBRCK_) 1)))
(assert (or ARG2_LSBRCK_9_RSBRCK_ (= (lift_to_int$ lift_arg2_LSBRCK_9_RSBRCK_) 0)))
(assert (>= (lift_to_int$ lift_arg2_LSBRCK_10_RSBRCK_) 0))
(assert (<= (lift_to_int$ lift_arg2_LSBRCK_10_RSBRCK_) 1))
(assert (or (not ARG2_LSBRCK_10_RSBRCK_) (= (lift_to_int$ lift_arg2_LSBRCK_10_RSBRCK_) 1)))
(assert (or ARG2_LSBRCK_10_RSBRCK_ (= (lift_to_int$ lift_arg2_LSBRCK_10_RSBRCK_) 0)))
(assert (>= (lift_to_int$ lift_arg2_LSBRCK_11_RSBRCK_) 0))
(assert (<= (lift_to_int$ lift_arg2_LSBRCK_11_RSBRCK_) 1))
(assert (or (not ARG2_LSBRCK_11_RSBRCK_) (= (lift_to_int$ lift_arg2_LSBRCK_11_RSBRCK_) 1)))
(assert (or ARG2_LSBRCK_11_RSBRCK_ (= (lift_to_int$ lift_arg2_LSBRCK_11_RSBRCK_) 0)))
(assert (>= (lift_to_int$ lift_arg2_LSBRCK_12_RSBRCK_) 0))
(assert (<= (lift_to_int$ lift_arg2_LSBRCK_12_RSBRCK_) 1))
(assert (or (not ARG2_LSBRCK_12_RSBRCK_) (= (lift_to_int$ lift_arg2_LSBRCK_12_RSBRCK_) 1)))
(assert (or ARG2_LSBRCK_12_RSBRCK_ (= (lift_to_int$ lift_arg2_LSBRCK_12_RSBRCK_) 0)))
(assert (>= (lift_to_int$ lift_arg2_LSBRCK_13_RSBRCK_) 0))
(assert (<= (lift_to_int$ lift_arg2_LSBRCK_13_RSBRCK_) 1))
(assert (or (not ARG2_LSBRCK_13_RSBRCK_) (= (lift_to_int$ lift_arg2_LSBRCK_13_RSBRCK_) 1)))
(assert (or ARG2_LSBRCK_13_RSBRCK_ (= (lift_to_int$ lift_arg2_LSBRCK_13_RSBRCK_) 0)))
(assert (>= (lift_to_int$ lift_arg2_LSBRCK_14_RSBRCK_) 0))
(assert (<= (lift_to_int$ lift_arg2_LSBRCK_14_RSBRCK_) 1))
(assert (or (not ARG2_LSBRCK_14_RSBRCK_) (= (lift_to_int$ lift_arg2_LSBRCK_14_RSBRCK_) 1)))
(assert (or ARG2_LSBRCK_14_RSBRCK_ (= (lift_to_int$ lift_arg2_LSBRCK_14_RSBRCK_) 0)))
(assert (>= (lift_to_int$ lift_arg2_LSBRCK_15_RSBRCK_) 0))
(assert (<= (lift_to_int$ lift_arg2_LSBRCK_15_RSBRCK_) 1))
(assert (or (not ARG2_LSBRCK_15_RSBRCK_) (= (lift_to_int$ lift_arg2_LSBRCK_15_RSBRCK_) 1)))
(assert (or ARG2_LSBRCK_15_RSBRCK_ (= (lift_to_int$ lift_arg2_LSBRCK_15_RSBRCK_) 0)))
(assert (>= (lift_to_int$ lift_arg2_LSBRCK_16_RSBRCK_) 0))
(assert (<= (lift_to_int$ lift_arg2_LSBRCK_16_RSBRCK_) 1))
(assert (or (not ARG2_LSBRCK_16_RSBRCK_) (= (lift_to_int$ lift_arg2_LSBRCK_16_RSBRCK_) 1)))
(assert (or ARG2_LSBRCK_16_RSBRCK_ (= (lift_to_int$ lift_arg2_LSBRCK_16_RSBRCK_) 0)))
(assert (>= (lift_to_int$ lift_arg2_LSBRCK_17_RSBRCK_) 0))
(assert (<= (lift_to_int$ lift_arg2_LSBRCK_17_RSBRCK_) 1))
(assert (or (not ARG2_LSBRCK_17_RSBRCK_) (= (lift_to_int$ lift_arg2_LSBRCK_17_RSBRCK_) 1)))
(assert (or ARG2_LSBRCK_17_RSBRCK_ (= (lift_to_int$ lift_arg2_LSBRCK_17_RSBRCK_) 0)))
(assert (>= (lift_to_int$ lift_arg2_LSBRCK_18_RSBRCK_) 0))
(assert (<= (lift_to_int$ lift_arg2_LSBRCK_18_RSBRCK_) 1))
(assert (or (not ARG2_LSBRCK_18_RSBRCK_) (= (lift_to_int$ lift_arg2_LSBRCK_18_RSBRCK_) 1)))
(assert (or ARG2_LSBRCK_18_RSBRCK_ (= (lift_to_int$ lift_arg2_LSBRCK_18_RSBRCK_) 0)))
(assert (>= (lift_to_int$ lift_arg2_LSBRCK_19_RSBRCK_) 0))
(assert (<= (lift_to_int$ lift_arg2_LSBRCK_19_RSBRCK_) 1))
(assert (or (not ARG2_LSBRCK_19_RSBRCK_) (= (lift_to_int$ lift_arg2_LSBRCK_19_RSBRCK_) 1)))
(assert (or ARG2_LSBRCK_19_RSBRCK_ (= (lift_to_int$ lift_arg2_LSBRCK_19_RSBRCK_) 0)))
(assert (>= (lift_to_int$ lift_arg2_LSBRCK_20_RSBRCK_) 0))
(assert (<= (lift_to_int$ lift_arg2_LSBRCK_20_RSBRCK_) 1))
(assert (or (not ARG2_LSBRCK_20_RSBRCK_) (= (lift_to_int$ lift_arg2_LSBRCK_20_RSBRCK_) 1)))
(assert (or ARG2_LSBRCK_20_RSBRCK_ (= (lift_to_int$ lift_arg2_LSBRCK_20_RSBRCK_) 0)))
(assert (>= (lift_to_int$ lift_arg2_LSBRCK_21_RSBRCK_) 0))
(assert (<= (lift_to_int$ lift_arg2_LSBRCK_21_RSBRCK_) 1))
(assert (or (not ARG2_LSBRCK_21_RSBRCK_) (= (lift_to_int$ lift_arg2_LSBRCK_21_RSBRCK_) 1)))
(assert (or ARG2_LSBRCK_21_RSBRCK_ (= (lift_to_int$ lift_arg2_LSBRCK_21_RSBRCK_) 0)))
(assert (>= (lift_to_int$ lift_arg2_LSBRCK_22_RSBRCK_) 0))
(assert (<= (lift_to_int$ lift_arg2_LSBRCK_22_RSBRCK_) 1))
(assert (or (not ARG2_LSBRCK_22_RSBRCK_) (= (lift_to_int$ lift_arg2_LSBRCK_22_RSBRCK_) 1)))
(assert (or ARG2_LSBRCK_22_RSBRCK_ (= (lift_to_int$ lift_arg2_LSBRCK_22_RSBRCK_) 0)))
(assert (>= (lift_to_int$ lift_arg2_LSBRCK_23_RSBRCK_) 0))
(assert (<= (lift_to_int$ lift_arg2_LSBRCK_23_RSBRCK_) 1))
(assert (or (not ARG2_LSBRCK_23_RSBRCK_) (= (lift_to_int$ lift_arg2_LSBRCK_23_RSBRCK_) 1)))
(assert (or ARG2_LSBRCK_23_RSBRCK_ (= (lift_to_int$ lift_arg2_LSBRCK_23_RSBRCK_) 0)))
(assert (>= (lift_to_int$ lift_arg2_LSBRCK_24_RSBRCK_) 0))
(assert (<= (lift_to_int$ lift_arg2_LSBRCK_24_RSBRCK_) 1))
(assert (or (not ARG2_LSBRCK_24_RSBRCK_) (= (lift_to_int$ lift_arg2_LSBRCK_24_RSBRCK_) 1)))
(assert (or ARG2_LSBRCK_24_RSBRCK_ (= (lift_to_int$ lift_arg2_LSBRCK_24_RSBRCK_) 0)))
(assert (>= (lift_to_int$ lift_arg2_LSBRCK_25_RSBRCK_) 0))
(assert (<= (lift_to_int$ lift_arg2_LSBRCK_25_RSBRCK_) 1))
(assert (or (not ARG2_LSBRCK_25_RSBRCK_) (= (lift_to_int$ lift_arg2_LSBRCK_25_RSBRCK_) 1)))
(assert (or ARG2_LSBRCK_25_RSBRCK_ (= (lift_to_int$ lift_arg2_LSBRCK_25_RSBRCK_) 0)))
(assert (>= (lift_to_int$ lift_arg2_LSBRCK_26_RSBRCK_) 0))
(assert (<= (lift_to_int$ lift_arg2_LSBRCK_26_RSBRCK_) 1))
(assert (or (not ARG2_LSBRCK_26_RSBRCK_) (= (lift_to_int$ lift_arg2_LSBRCK_26_RSBRCK_) 1)))
(assert (or ARG2_LSBRCK_26_RSBRCK_ (= (lift_to_int$ lift_arg2_LSBRCK_26_RSBRCK_) 0)))
(assert (>= (lift_to_int$ lift_arg2_LSBRCK_27_RSBRCK_) 0))
(assert (<= (lift_to_int$ lift_arg2_LSBRCK_27_RSBRCK_) 1))
(assert (or (not ARG2_LSBRCK_27_RSBRCK_) (= (lift_to_int$ lift_arg2_LSBRCK_27_RSBRCK_) 1)))
(assert (or ARG2_LSBRCK_27_RSBRCK_ (= (lift_to_int$ lift_arg2_LSBRCK_27_RSBRCK_) 0)))
(assert (>= (lift_to_int$ lift_arg2_LSBRCK_28_RSBRCK_) 0))
(assert (<= (lift_to_int$ lift_arg2_LSBRCK_28_RSBRCK_) 1))
(assert (or (not ARG2_LSBRCK_28_RSBRCK_) (= (lift_to_int$ lift_arg2_LSBRCK_28_RSBRCK_) 1)))
(assert (or ARG2_LSBRCK_28_RSBRCK_ (= (lift_to_int$ lift_arg2_LSBRCK_28_RSBRCK_) 0)))
(assert (>= (lift_to_int$ lift_arg2_LSBRCK_29_RSBRCK_) 0))
(assert (<= (lift_to_int$ lift_arg2_LSBRCK_29_RSBRCK_) 1))
(assert (or (not ARG2_LSBRCK_29_RSBRCK_) (= (lift_to_int$ lift_arg2_LSBRCK_29_RSBRCK_) 1)))
(assert (or ARG2_LSBRCK_29_RSBRCK_ (= (lift_to_int$ lift_arg2_LSBRCK_29_RSBRCK_) 0)))
(assert (>= (lift_to_int$ lift_arg2_LSBRCK_30_RSBRCK_) 0))
(assert (<= (lift_to_int$ lift_arg2_LSBRCK_30_RSBRCK_) 1))
(assert (or (not ARG2_LSBRCK_30_RSBRCK_) (= (lift_to_int$ lift_arg2_LSBRCK_30_RSBRCK_) 1)))
(assert (or ARG2_LSBRCK_30_RSBRCK_ (= (lift_to_int$ lift_arg2_LSBRCK_30_RSBRCK_) 0)))
(assert (>= (lift_to_int$ lift_arg2_LSBRCK_31_RSBRCK_) 0))
(assert (<= (lift_to_int$ lift_arg2_LSBRCK_31_RSBRCK_) 1))
(assert (or (not ARG2_LSBRCK_31_RSBRCK_) (= (lift_to_int$ lift_arg2_LSBRCK_31_RSBRCK_) 1)))
(assert (or ARG2_LSBRCK_31_RSBRCK_ (= (lift_to_int$ lift_arg2_LSBRCK_31_RSBRCK_) 0)))
(assert (>= (lift_to_int$ lift_mul_sum_LSBRCK_0_RSBRCK_) 0))
(assert (<= (lift_to_int$ lift_mul_sum_LSBRCK_0_RSBRCK_) 4294967295))
(assert (>= (lift_to_int$ lift_arg1) 0))
(assert (<= (lift_to_int$ lift_arg1) 4294967295))
(assert (or (not ARG2_LSBRCK_0_RSBRCK_) (= (lift_to_int$ lift_mul_sum_LSBRCK_0_RSBRCK_) (lift_to_int$ lift_arg1))))
(assert (or ARG2_LSBRCK_0_RSBRCK_ (= (lift_to_int$ lift_mul_sum_LSBRCK_0_RSBRCK_) 0)))
(assert (>= (lift_to_int$ lift_mul_sum_LSBRCK_1_RSBRCK_) 0))
(assert (<= (lift_to_int$ lift_mul_sum_LSBRCK_1_RSBRCK_) 4294967295))
(assert (or (not ARG2_LSBRCK_1_RSBRCK_) (= (lift_to_int$ lift_mul_sum_LSBRCK_1_RSBRCK_) (lift_to_int$ lift_arg1))))
(assert (or ARG2_LSBRCK_1_RSBRCK_ (= (lift_to_int$ lift_mul_sum_LSBRCK_1_RSBRCK_) 0)))
(assert (>= (lift_to_int$ lift_mul_sum_LSBRCK_2_RSBRCK_) 0))
(assert (<= (lift_to_int$ lift_mul_sum_LSBRCK_2_RSBRCK_) 4294967295))
(assert (or (not ARG2_LSBRCK_2_RSBRCK_) (= (lift_to_int$ lift_mul_sum_LSBRCK_2_RSBRCK_) (lift_to_int$ lift_arg1))))
(assert (or ARG2_LSBRCK_2_RSBRCK_ (= (lift_to_int$ lift_mul_sum_LSBRCK_2_RSBRCK_) 0)))
(assert (>= (lift_to_int$ lift_mul_sum_LSBRCK_3_RSBRCK_) 0))
(assert (<= (lift_to_int$ lift_mul_sum_LSBRCK_3_RSBRCK_) 4294967295))
(assert (or (not ARG2_LSBRCK_3_RSBRCK_) (= (lift_to_int$ lift_mul_sum_LSBRCK_3_RSBRCK_) (lift_to_int$ lift_arg1))))
(assert (or ARG2_LSBRCK_3_RSBRCK_ (= (lift_to_int$ lift_mul_sum_LSBRCK_3_RSBRCK_) 0)))
(assert (>= (lift_to_int$ lift_mul_sum_LSBRCK_4_RSBRCK_) 0))
(assert (<= (lift_to_int$ lift_mul_sum_LSBRCK_4_RSBRCK_) 4294967295))
(assert (or (not ARG2_LSBRCK_4_RSBRCK_) (= (lift_to_int$ lift_mul_sum_LSBRCK_4_RSBRCK_) (lift_to_int$ lift_arg1))))
(assert (or ARG2_LSBRCK_4_RSBRCK_ (= (lift_to_int$ lift_mul_sum_LSBRCK_4_RSBRCK_) 0)))
(assert (>= (lift_to_int$ lift_mul_sum_LSBRCK_5_RSBRCK_) 0))
(assert (<= (lift_to_int$ lift_mul_sum_LSBRCK_5_RSBRCK_) 4294967295))
(assert (or (not ARG2_LSBRCK_5_RSBRCK_) (= (lift_to_int$ lift_mul_sum_LSBRCK_5_RSBRCK_) (lift_to_int$ lift_arg1))))
(assert (or ARG2_LSBRCK_5_RSBRCK_ (= (lift_to_int$ lift_mul_sum_LSBRCK_5_RSBRCK_) 0)))
(assert (>= (lift_to_int$ lift_mul_sum_LSBRCK_6_RSBRCK_) 0))
(assert (<= (lift_to_int$ lift_mul_sum_LSBRCK_6_RSBRCK_) 4294967295))
(assert (or (not ARG2_LSBRCK_6_RSBRCK_) (= (lift_to_int$ lift_mul_sum_LSBRCK_6_RSBRCK_) (lift_to_int$ lift_arg1))))
(assert (or ARG2_LSBRCK_6_RSBRCK_ (= (lift_to_int$ lift_mul_sum_LSBRCK_6_RSBRCK_) 0)))
(assert (>= (lift_to_int$ lift_mul_sum_LSBRCK_7_RSBRCK_) 0))
(assert (<= (lift_to_int$ lift_mul_sum_LSBRCK_7_RSBRCK_) 4294967295))
(assert (or (not ARG2_LSBRCK_7_RSBRCK_) (= (lift_to_int$ lift_mul_sum_LSBRCK_7_RSBRCK_) (lift_to_int$ lift_arg1))))
(assert (or ARG2_LSBRCK_7_RSBRCK_ (= (lift_to_int$ lift_mul_sum_LSBRCK_7_RSBRCK_) 0)))
(assert (>= (lift_to_int$ lift_mul_sum_LSBRCK_8_RSBRCK_) 0))
(assert (<= (lift_to_int$ lift_mul_sum_LSBRCK_8_RSBRCK_) 4294967295))
(assert (or (not ARG2_LSBRCK_8_RSBRCK_) (= (lift_to_int$ lift_mul_sum_LSBRCK_8_RSBRCK_) (lift_to_int$ lift_arg1))))
(assert (or ARG2_LSBRCK_8_RSBRCK_ (= (lift_to_int$ lift_mul_sum_LSBRCK_8_RSBRCK_) 0)))
(assert (>= (lift_to_int$ lift_mul_sum_LSBRCK_9_RSBRCK_) 0))
(assert (<= (lift_to_int$ lift_mul_sum_LSBRCK_9_RSBRCK_) 4294967295))
(assert (or (not ARG2_LSBRCK_9_RSBRCK_) (= (lift_to_int$ lift_mul_sum_LSBRCK_9_RSBRCK_) (lift_to_int$ lift_arg1))))
(assert (or ARG2_LSBRCK_9_RSBRCK_ (= (lift_to_int$ lift_mul_sum_LSBRCK_9_RSBRCK_) 0)))
(assert (>= (lift_to_int$ lift_mul_sum_LSBRCK_10_RSBRCK_) 0))
(assert (<= (lift_to_int$ lift_mul_sum_LSBRCK_10_RSBRCK_) 4294967295))
(assert (or (not ARG2_LSBRCK_10_RSBRCK_) (= (lift_to_int$ lift_mul_sum_LSBRCK_10_RSBRCK_) (lift_to_int$ lift_arg1))))
(assert (or ARG2_LSBRCK_10_RSBRCK_ (= (lift_to_int$ lift_mul_sum_LSBRCK_10_RSBRCK_) 0)))
(assert (>= (lift_to_int$ lift_mul_sum_LSBRCK_11_RSBRCK_) 0))
(assert (<= (lift_to_int$ lift_mul_sum_LSBRCK_11_RSBRCK_) 4294967295))
(assert (or (not ARG2_LSBRCK_11_RSBRCK_) (= (lift_to_int$ lift_mul_sum_LSBRCK_11_RSBRCK_) (lift_to_int$ lift_arg1))))
(assert (or ARG2_LSBRCK_11_RSBRCK_ (= (lift_to_int$ lift_mul_sum_LSBRCK_11_RSBRCK_) 0)))
(assert (>= (lift_to_int$ lift_mul_sum_LSBRCK_12_RSBRCK_) 0))
(assert (<= (lift_to_int$ lift_mul_sum_LSBRCK_12_RSBRCK_) 4294967295))
(assert (or (not ARG2_LSBRCK_12_RSBRCK_) (= (lift_to_int$ lift_mul_sum_LSBRCK_12_RSBRCK_) (lift_to_int$ lift_arg1))))
(assert (or ARG2_LSBRCK_12_RSBRCK_ (= (lift_to_int$ lift_mul_sum_LSBRCK_12_RSBRCK_) 0)))
(assert (>= (lift_to_int$ lift_mul_sum_LSBRCK_13_RSBRCK_) 0))
(assert (<= (lift_to_int$ lift_mul_sum_LSBRCK_13_RSBRCK_) 4294967295))
(assert (or (not ARG2_LSBRCK_13_RSBRCK_) (= (lift_to_int$ lift_mul_sum_LSBRCK_13_RSBRCK_) (lift_to_int$ lift_arg1))))
(assert (or ARG2_LSBRCK_13_RSBRCK_ (= (lift_to_int$ lift_mul_sum_LSBRCK_13_RSBRCK_) 0)))
(assert (>= (lift_to_int$ lift_mul_sum_LSBRCK_14_RSBRCK_) 0))
(assert (<= (lift_to_int$ lift_mul_sum_LSBRCK_14_RSBRCK_) 4294967295))
(assert (or (not ARG2_LSBRCK_14_RSBRCK_) (= (lift_to_int$ lift_mul_sum_LSBRCK_14_RSBRCK_) (lift_to_int$ lift_arg1))))
(assert (or ARG2_LSBRCK_14_RSBRCK_ (= (lift_to_int$ lift_mul_sum_LSBRCK_14_RSBRCK_) 0)))
(assert (>= (lift_to_int$ lift_mul_sum_LSBRCK_15_RSBRCK_) 0))
(assert (<= (lift_to_int$ lift_mul_sum_LSBRCK_15_RSBRCK_) 4294967295))
(assert (or (not ARG2_LSBRCK_15_RSBRCK_) (= (lift_to_int$ lift_mul_sum_LSBRCK_15_RSBRCK_) (lift_to_int$ lift_arg1))))
(assert (or ARG2_LSBRCK_15_RSBRCK_ (= (lift_to_int$ lift_mul_sum_LSBRCK_15_RSBRCK_) 0)))
(assert (>= (lift_to_int$ lift_mul_sum_LSBRCK_16_RSBRCK_) 0))
(assert (<= (lift_to_int$ lift_mul_sum_LSBRCK_16_RSBRCK_) 4294967295))
(assert (or (not ARG2_LSBRCK_16_RSBRCK_) (= (lift_to_int$ lift_mul_sum_LSBRCK_16_RSBRCK_) (lift_to_int$ lift_arg1))))
(assert (or ARG2_LSBRCK_16_RSBRCK_ (= (lift_to_int$ lift_mul_sum_LSBRCK_16_RSBRCK_) 0)))
(assert (>= (lift_to_int$ lift_mul_sum_LSBRCK_17_RSBRCK_) 0))
(assert (<= (lift_to_int$ lift_mul_sum_LSBRCK_17_RSBRCK_) 4294967295))
(assert (or (not ARG2_LSBRCK_17_RSBRCK_) (= (lift_to_int$ lift_mul_sum_LSBRCK_17_RSBRCK_) (lift_to_int$ lift_arg1))))
(assert (or ARG2_LSBRCK_17_RSBRCK_ (= (lift_to_int$ lift_mul_sum_LSBRCK_17_RSBRCK_) 0)))
(assert (>= (lift_to_int$ lift_mul_sum_LSBRCK_18_RSBRCK_) 0))
(assert (<= (lift_to_int$ lift_mul_sum_LSBRCK_18_RSBRCK_) 4294967295))
(assert (or (not ARG2_LSBRCK_18_RSBRCK_) (= (lift_to_int$ lift_mul_sum_LSBRCK_18_RSBRCK_) (lift_to_int$ lift_arg1))))
(assert (or ARG2_LSBRCK_18_RSBRCK_ (= (lift_to_int$ lift_mul_sum_LSBRCK_18_RSBRCK_) 0)))
(assert (>= (lift_to_int$ lift_mul_sum_LSBRCK_19_RSBRCK_) 0))
(assert (<= (lift_to_int$ lift_mul_sum_LSBRCK_19_RSBRCK_) 4294967295))
(assert (or (not ARG2_LSBRCK_19_RSBRCK_) (= (lift_to_int$ lift_mul_sum_LSBRCK_19_RSBRCK_) (lift_to_int$ lift_arg1))))
(assert (or ARG2_LSBRCK_19_RSBRCK_ (= (lift_to_int$ lift_mul_sum_LSBRCK_19_RSBRCK_) 0)))
(assert (>= (lift_to_int$ lift_mul_sum_LSBRCK_20_RSBRCK_) 0))
(assert (<= (lift_to_int$ lift_mul_sum_LSBRCK_20_RSBRCK_) 4294967295))
(assert (or (not ARG2_LSBRCK_20_RSBRCK_) (= (lift_to_int$ lift_mul_sum_LSBRCK_20_RSBRCK_) (lift_to_int$ lift_arg1))))
(assert (or ARG2_LSBRCK_20_RSBRCK_ (= (lift_to_int$ lift_mul_sum_LSBRCK_20_RSBRCK_) 0)))
(assert (>= (lift_to_int$ lift_mul_sum_LSBRCK_21_RSBRCK_) 0))
(assert (<= (lift_to_int$ lift_mul_sum_LSBRCK_21_RSBRCK_) 4294967295))
(assert (or (not ARG2_LSBRCK_21_RSBRCK_) (= (lift_to_int$ lift_mul_sum_LSBRCK_21_RSBRCK_) (lift_to_int$ lift_arg1))))
(assert (or ARG2_LSBRCK_21_RSBRCK_ (= (lift_to_int$ lift_mul_sum_LSBRCK_21_RSBRCK_) 0)))
(assert (>= (lift_to_int$ lift_mul_sum_LSBRCK_22_RSBRCK_) 0))
(assert (<= (lift_to_int$ lift_mul_sum_LSBRCK_22_RSBRCK_) 4294967295))
(assert (or (not ARG2_LSBRCK_22_RSBRCK_) (= (lift_to_int$ lift_mul_sum_LSBRCK_22_RSBRCK_) (lift_to_int$ lift_arg1))))
(assert (or ARG2_LSBRCK_22_RSBRCK_ (= (lift_to_int$ lift_mul_sum_LSBRCK_22_RSBRCK_) 0)))
(assert (>= (lift_to_int$ lift_mul_sum_LSBRCK_23_RSBRCK_) 0))
(assert (<= (lift_to_int$ lift_mul_sum_LSBRCK_23_RSBRCK_) 4294967295))
(assert (or (not ARG2_LSBRCK_23_RSBRCK_) (= (lift_to_int$ lift_mul_sum_LSBRCK_23_RSBRCK_) (lift_to_int$ lift_arg1))))
(assert (or ARG2_LSBRCK_23_RSBRCK_ (= (lift_to_int$ lift_mul_sum_LSBRCK_23_RSBRCK_) 0)))
(assert (>= (lift_to_int$ lift_mul_sum_LSBRCK_24_RSBRCK_) 0))
(assert (<= (lift_to_int$ lift_mul_sum_LSBRCK_24_RSBRCK_) 4294967295))
(assert (or (not ARG2_LSBRCK_24_RSBRCK_) (= (lift_to_int$ lift_mul_sum_LSBRCK_24_RSBRCK_) (lift_to_int$ lift_arg1))))
(assert (or ARG2_LSBRCK_24_RSBRCK_ (= (lift_to_int$ lift_mul_sum_LSBRCK_24_RSBRCK_) 0)))
(assert (>= (lift_to_int$ lift_mul_sum_LSBRCK_25_RSBRCK_) 0))
(assert (<= (lift_to_int$ lift_mul_sum_LSBRCK_25_RSBRCK_) 4294967295))
(assert (or (not ARG2_LSBRCK_25_RSBRCK_) (= (lift_to_int$ lift_mul_sum_LSBRCK_25_RSBRCK_) (lift_to_int$ lift_arg1))))
(assert (or ARG2_LSBRCK_25_RSBRCK_ (= (lift_to_int$ lift_mul_sum_LSBRCK_25_RSBRCK_) 0)))
(assert (>= (lift_to_int$ lift_mul_sum_LSBRCK_26_RSBRCK_) 0))
(assert (<= (lift_to_int$ lift_mul_sum_LSBRCK_26_RSBRCK_) 4294967295))
(assert (or (not ARG2_LSBRCK_26_RSBRCK_) (= (lift_to_int$ lift_mul_sum_LSBRCK_26_RSBRCK_) (lift_to_int$ lift_arg1))))
(assert (or ARG2_LSBRCK_26_RSBRCK_ (= (lift_to_int$ lift_mul_sum_LSBRCK_26_RSBRCK_) 0)))
(assert (>= (lift_to_int$ lift_mul_sum_LSBRCK_27_RSBRCK_) 0))
(assert (<= (lift_to_int$ lift_mul_sum_LSBRCK_27_RSBRCK_) 4294967295))
(assert (or (not ARG2_LSBRCK_27_RSBRCK_) (= (lift_to_int$ lift_mul_sum_LSBRCK_27_RSBRCK_) (lift_to_int$ lift_arg1))))
(assert (or ARG2_LSBRCK_27_RSBRCK_ (= (lift_to_int$ lift_mul_sum_LSBRCK_27_RSBRCK_) 0)))
(assert (>= (lift_to_int$ lift_mul_sum_LSBRCK_28_RSBRCK_) 0))
(assert (<= (lift_to_int$ lift_mul_sum_LSBRCK_28_RSBRCK_) 4294967295))
(assert (or (not ARG2_LSBRCK_28_RSBRCK_) (= (lift_to_int$ lift_mul_sum_LSBRCK_28_RSBRCK_) (lift_to_int$ lift_arg1))))
(assert (or ARG2_LSBRCK_28_RSBRCK_ (= (lift_to_int$ lift_mul_sum_LSBRCK_28_RSBRCK_) 0)))
(assert (>= (lift_to_int$ lift_mul_sum_LSBRCK_29_RSBRCK_) 0))
(assert (<= (lift_to_int$ lift_mul_sum_LSBRCK_29_RSBRCK_) 4294967295))
(assert (or (not ARG2_LSBRCK_29_RSBRCK_) (= (lift_to_int$ lift_mul_sum_LSBRCK_29_RSBRCK_) (lift_to_int$ lift_arg1))))
(assert (or ARG2_LSBRCK_29_RSBRCK_ (= (lift_to_int$ lift_mul_sum_LSBRCK_29_RSBRCK_) 0)))
(assert (>= (lift_to_int$ lift_mul_sum_LSBRCK_30_RSBRCK_) 0))
(assert (<= (lift_to_int$ lift_mul_sum_LSBRCK_30_RSBRCK_) 4294967295))
(assert (or (not ARG2_LSBRCK_30_RSBRCK_) (= (lift_to_int$ lift_mul_sum_LSBRCK_30_RSBRCK_) (lift_to_int$ lift_arg1))))
(assert (or ARG2_LSBRCK_30_RSBRCK_ (= (lift_to_int$ lift_mul_sum_LSBRCK_30_RSBRCK_) 0)))
(assert (>= (lift_to_int$ lift_mul_sum_LSBRCK_31_RSBRCK_) 0))
(assert (<= (lift_to_int$ lift_mul_sum_LSBRCK_31_RSBRCK_) 4294967295))
(assert (or (not ARG2_LSBRCK_31_RSBRCK_) (= (lift_to_int$ lift_mul_sum_LSBRCK_31_RSBRCK_) (lift_to_int$ lift_arg1))))
(assert (or ARG2_LSBRCK_31_RSBRCK_ (= (lift_to_int$ lift_mul_sum_LSBRCK_31_RSBRCK_) 0)))
(assert (>= (lift_to_int$ lift_mul_sum) 0))
(assert (<= (lift_to_int$ lift_mul_sum) 18446744073709551615))
(assert (= (- (- (- (- (- (- (- (- (- (- (- (- (- (- (- (- (- (- (- (- (- (- (- (- (- (- (- (- (- (- (- (- (lift_to_int$ lift_mul_sum) (lift_to_int$ lift_mul_sum_LSBRCK_0_RSBRCK_)) (* 2 (lift_to_int$ lift_mul_sum_LSBRCK_1_RSBRCK_))) (* 4 (lift_to_int$ lift_mul_sum_LSBRCK_2_RSBRCK_))) (* 8 (lift_to_int$ lift_mul_sum_LSBRCK_3_RSBRCK_))) (* 16 (lift_to_int$ lift_mul_sum_LSBRCK_4_RSBRCK_))) (* 32 (lift_to_int$ lift_mul_sum_LSBRCK_5_RSBRCK_))) (* 64 (lift_to_int$ lift_mul_sum_LSBRCK_6_RSBRCK_))) (* 128 (lift_to_int$ lift_mul_sum_LSBRCK_7_RSBRCK_))) (* 256 (lift_to_int$ lift_mul_sum_LSBRCK_8_RSBRCK_))) (* 512 (lift_to_int$ lift_mul_sum_LSBRCK_9_RSBRCK_))) (* 1024 (lift_to_int$ lift_mul_sum_LSBRCK_10_RSBRCK_))) (* 2048 (lift_to_int$ lift_mul_sum_LSBRCK_11_RSBRCK_))) (* 4096 (lift_to_int$ lift_mul_sum_LSBRCK_12_RSBRCK_))) (* 8192 (lift_to_int$ lift_mul_sum_LSBRCK_13_RSBRCK_))) (* 16384 (lift_to_int$ lift_mul_sum_LSBRCK_14_RSBRCK_))) (* 32768 (lift_to_int$ lift_mul_sum_LSBRCK_15_RSBRCK_))) (* 65536 (lift_to_int$ lift_mul_sum_LSBRCK_16_RSBRCK_))) (* 131072 (lift_to_int$ lift_mul_sum_LSBRCK_17_RSBRCK_))) (* 262144 (lift_to_int$ lift_mul_sum_LSBRCK_18_RSBRCK_))) (* 524288 (lift_to_int$ lift_mul_sum_LSBRCK_19_RSBRCK_))) (* 1048576 (lift_to_int$ lift_mul_sum_LSBRCK_20_RSBRCK_))) (* 2097152 (lift_to_int$ lift_mul_sum_LSBRCK_21_RSBRCK_))) (* 4194304 (lift_to_int$ lift_mul_sum_LSBRCK_22_RSBRCK_))) (* 8388608 (lift_to_int$ lift_mul_sum_LSBRCK_23_RSBRCK_))) (* 16777216 (lift_to_int$ lift_mul_sum_LSBRCK_24_RSBRCK_))) (* 33554432 (lift_to_int$ lift_mul_sum_LSBRCK_25_RSBRCK_))) (* 67108864 (lift_to_int$ lift_mul_sum_LSBRCK_26_RSBRCK_))) (* 134217728 (lift_to_int$ lift_mul_sum_LSBRCK_27_RSBRCK_))) (* 268435456 (lift_to_int$ lift_mul_sum_LSBRCK_28_RSBRCK_))) (* 536870912 (lift_to_int$ lift_mul_sum_LSBRCK_29_RSBRCK_))) (* 1073741824 (lift_to_int$ lift_mul_sum_LSBRCK_30_RSBRCK_))) (* 2147483648 (lift_to_int$ lift_mul_sum_LSBRCK_31_RSBRCK_))) 0))
(assert (>= (lift_to_int$ lift_mul) 0))
(assert (<= (lift_to_int$ lift_mul) 18446744073709551615))
(assert (= (lift_to_int$ lift_mul) (lift_to_int$ lift_mul_sum)))
(assert (= (lift_to_int$ lift_mul) 4))
(assert (and (>= (lift_nat_step$ lift_arg1) 0) (= (lift_to_int$ (lift_nat_step$ lift_arg1)) (lift_to_int$ lift_arg1))))
(assert (and (>= (lift_nat_step$ lift_arg2_LSBRCK_0_RSBRCK_) 0) (= (lift_to_int$ (lift_nat_step$ lift_arg2_LSBRCK_0_RSBRCK_)) (lift_to_int$ lift_arg2_LSBRCK_0_RSBRCK_))))
(assert (and (>= (lift_nat_step$ lift_arg2_LSBRCK_10_RSBRCK_) 0) (= (lift_to_int$ (lift_nat_step$ lift_arg2_LSBRCK_10_RSBRCK_)) (lift_to_int$ lift_arg2_LSBRCK_10_RSBRCK_))))
(assert true)
(assert (>= lift_mul 0))
(assert (>= lift_mul_sum_LSBRCK_31_RSBRCK_ 0))
(assert (>= lift_mul_sum_LSBRCK_30_RSBRCK_ 0))
(assert (>= lift_mul_sum_LSBRCK_29_RSBRCK_ 0))
(assert (>= lift_mul_sum_LSBRCK_28_RSBRCK_ 0))
(assert (>= lift_mul_sum_LSBRCK_27_RSBRCK_ 0))
(assert (>= lift_mul_sum_LSBRCK_26_RSBRCK_ 0))
(assert (>= lift_mul_sum_LSBRCK_25_RSBRCK_ 0))
(assert (>= lift_mul_sum_LSBRCK_24_RSBRCK_ 0))
(assert (>= lift_mul_sum_LSBRCK_23_RSBRCK_ 0))
(assert (>= lift_mul_sum_LSBRCK_22_RSBRCK_ 0))
(assert (>= lift_mul_sum_LSBRCK_21_RSBRCK_ 0))
(assert (>= lift_mul_sum_LSBRCK_20_RSBRCK_ 0))
(assert (>= lift_mul_sum_LSBRCK_19_RSBRCK_ 0))
(assert (>= lift_mul_sum_LSBRCK_18_RSBRCK_ 0))
(assert (>= lift_mul_sum_LSBRCK_17_RSBRCK_ 0))
(assert (>= lift_mul_sum_LSBRCK_16_RSBRCK_ 0))
(assert (>= lift_mul_sum_LSBRCK_15_RSBRCK_ 0))
(assert (>= lift_mul_sum_LSBRCK_14_RSBRCK_ 0))
(assert (>= lift_mul_sum_LSBRCK_13_RSBRCK_ 0))
(assert (>= lift_mul_sum_LSBRCK_12_RSBRCK_ 0))
(assert (>= lift_mul_sum_LSBRCK_10_RSBRCK_ 0))
(assert (>= lift_mul_sum_LSBRCK_3_RSBRCK_ 0))
(assert (>= lift_mul_sum_LSBRCK_1_RSBRCK_ 0))
(assert (>= lift_mul_sum_LSBRCK_5_RSBRCK_ 0))
(assert (>= lift_mul_sum_LSBRCK_8_RSBRCK_ 0))
(assert (>= lift_arg1 0))
(assert (>= lift_mul_sum_LSBRCK_7_RSBRCK_ 0))
(assert (>= lift_mul_sum 0))
(assert (>= lift_arg2_LSBRCK_0_RSBRCK_ 0))
(assert (>= lift_arg2_LSBRCK_1_RSBRCK_ 0))
(assert (>= lift_mul_sum_LSBRCK_4_RSBRCK_ 0))
(assert (>= lift_arg2_LSBRCK_2_RSBRCK_ 0))
(assert (>= lift_arg2_LSBRCK_3_RSBRCK_ 0))
(assert (>= lift_arg2_LSBRCK_4_RSBRCK_ 0))
(assert (>= lift_arg2_LSBRCK_5_RSBRCK_ 0))
(assert (>= lift_arg2_LSBRCK_6_RSBRCK_ 0))
(assert (>= lift_arg2_LSBRCK_7_RSBRCK_ 0))
(assert (>= lift_arg2_LSBRCK_8_RSBRCK_ 0))
(assert (>= lift_arg2_LSBRCK_9_RSBRCK_ 0))
(assert (>= lift_arg2_LSBRCK_11_RSBRCK_ 0))
(assert (>= lift_arg2_LSBRCK_12_RSBRCK_ 0))
(assert (>= lift_arg2_LSBRCK_13_RSBRCK_ 0))
(assert (>= lift_arg2_LSBRCK_14_RSBRCK_ 0))
(assert (>= lift_arg2_LSBRCK_15_RSBRCK_ 0))
(assert (>= lift_arg2_LSBRCK_16_RSBRCK_ 0))
(assert (>= lift_arg2 0))
(assert (>= lift_arg2_LSBRCK_17_RSBRCK_ 0))
(assert (>= lift_mul_sum_LSBRCK_0_RSBRCK_ 0))
(assert (>= lift_arg2_LSBRCK_18_RSBRCK_ 0))
(assert (>= lift_mul_sum_LSBRCK_11_RSBRCK_ 0))
(assert (>= lift_arg2_LSBRCK_19_RSBRCK_ 0))
(assert (>= lift_arg2_LSBRCK_20_RSBRCK_ 0))
(assert (>= lift_arg2_LSBRCK_21_RSBRCK_ 0))
(assert (>= lift_arg2_LSBRCK_22_RSBRCK_ 0))
(assert (>= lift_arg2_LSBRCK_24_RSBRCK_ 0))
(assert (>= lift_arg2_LSBRCK_25_RSBRCK_ 0))
(assert (>= lift_arg2_LSBRCK_26_RSBRCK_ 0))
(assert (>= lift_arg2_LSBRCK_27_RSBRCK_ 0))
(assert (>= lift_mul_sum_LSBRCK_2_RSBRCK_ 0))
(assert (>= lift_arg2_LSBRCK_28_RSBRCK_ 0))
(assert (>= lift_arg2_LSBRCK_29_RSBRCK_ 0))
(assert (>= lift_mul_sum_LSBRCK_6_RSBRCK_ 0))
(assert (>= lift_arg2_LSBRCK_30_RSBRCK_ 0))
(assert (>= lift_mul_sum_LSBRCK_9_RSBRCK_ 0))
(assert (>= lift_arg2_LSBRCK_10_RSBRCK_ 0))
(assert (>= lift_arg2_LSBRCK_31_RSBRCK_ 0))
(assert (>= lift_arg2_LSBRCK_23_RSBRCK_ 0))
(check-sat)
